12
0 48 58 24 6 44 64 55 91 48 95 30 
48 0 3 85 95 90 36 47 36 17 65 50 
58 3 0 36 87 79 32 5 94 58 54 76 
24 85 36 0 0 96 39 13 86 60 0 49 
6 95 87 0 0 70 32 0 47 35 23 60 
44 90 79 96 70 0 93 31 31 33 34 29 
64 36 32 39 32 93 0 19 96 78 45 4 
55 47 5 13 0 31 19 0 18 7 13 44 
91 36 94 86 47 31 96 18 0 56 60 85 
48 17 58 60 35 33 78 7 56 0 86 29 
95 65 54 0 23 34 45 13 60 86 0 59 
30 50 76 49 60 29 4 44 85 29 59 0 
BBRBRBRRRBRB
